c Reduced graph for r07 generated by Cyril Grelier
p edge 138 1221
e 1 4
e 1 18
e 1 20
e 1 23
e 1 25
e 1 52
e 1 57
e 1 60
e 1 72
e 1 76
e 1 80
e 1 81
e 1 92
e 1 94
e 1 109
e 1 111
e 1 113
e 1 114
e 1 121
e 1 130
e 1 138
e 2 9
e 2 10
e 2 17
e 2 46
e 2 47
e 2 54
e 2 70
e 2 78
e 2 103
e 2 108
e 2 109
e 2 136
e 3 5
e 3 12
e 3 21
e 3 29
e 3 32
e 3 38
e 3 41
e 3 58
e 3 59
e 3 68
e 3 78
e 3 92
e 3 102
e 3 103
e 3 115
e 3 121
e 3 126
e 3 127
e 3 129
e 3 137
e 4 12
e 4 14
e 4 18
e 4 20
e 4 22
e 4 23
e 4 35
e 4 46
e 4 57
e 4 80
e 4 92
e 4 96
e 4 98
e 4 107
e 4 109
e 4 111
e 4 113
e 4 114
e 4 130
e 4 138
e 5 17
e 5 21
e 5 29
e 5 38
e 5 51
e 5 55
e 5 58
e 5 59
e 5 64
e 5 66
e 5 78
e 5 81
e 5 83
e 5 92
e 5 98
e 5 105
e 5 116
e 5 127
e 6 13
e 6 26
e 6 36
e 6 37
e 6 39
e 6 54
e 6 57
e 6 65
e 6 77
e 6 79
e 6 87
e 6 96
e 6 97
e 6 118
e 6 119
e 6 129
e 7 15
e 7 24
e 7 43
e 7 71
e 7 79
e 7 82
e 7 93
e 7 94
e 7 108
e 7 112
e 7 120
e 7 133
e 7 135
e 7 138
e 8 15
e 8 19
e 8 20
e 8 26
e 8 32
e 8 34
e 8 51
e 8 53
e 8 56
e 8 65
e 8 67
e 8 72
e 8 86
e 8 89
e 8 112
e 8 122
e 8 124
e 9 10
e 9 17
e 9 36
e 9 44
e 9 54
e 9 59
e 9 75
e 9 76
e 9 88
e 9 103
e 9 104
e 9 107
e 9 109
e 9 110
e 9 120
e 10 17
e 10 35
e 10 54
e 10 67
e 10 93
e 10 103
e 10 109
e 10 117
e 10 128
e 11 19
e 11 22
e 11 24
e 11 28
e 11 29
e 11 48
e 11 50
e 11 52
e 11 66
e 11 69
e 11 70
e 11 74
e 11 80
e 11 84
e 11 104
e 11 124
e 11 126
e 11 131
e 11 132
e 12 14
e 12 22
e 12 32
e 12 35
e 12 41
e 12 46
e 12 68
e 12 96
e 12 98
e 12 102
e 12 103
e 12 107
e 12 115
e 12 121
e 12 126
e 12 129
e 12 137
e 13 37
e 13 45
e 13 49
e 13 53
e 13 54
e 13 63
e 13 65
e 13 68
e 13 71
e 13 77
e 13 79
e 13 87
e 13 88
e 13 96
e 13 111
e 13 116
e 13 123
e 13 134
e 13 136
e 14 22
e 14 25
e 14 27
e 14 35
e 14 38
e 14 46
e 14 61
e 14 84
e 14 86
e 14 95
e 14 96
e 14 97
e 14 98
e 14 107
e 14 125
e 14 134
e 14 135
e 15 19
e 15 20
e 15 32
e 15 43
e 15 51
e 15 65
e 15 67
e 15 71
e 15 86
e 15 94
e 15 133
e 16 31
e 16 37
e 16 39
e 16 56
e 16 60
e 16 63
e 16 82
e 16 85
e 16 90
e 16 106
e 16 127
e 16 131
e 16 137
e 17 51
e 17 54
e 17 55
e 17 64
e 17 66
e 17 81
e 17 83
e 17 98
e 17 103
e 17 105
e 17 109
e 17 116
e 18 20
e 18 23
e 18 31
e 18 33
e 18 41
e 18 55
e 18 57
e 18 61
e 18 80
e 18 92
e 18 99
e 18 101
e 18 109
e 18 111
e 18 113
e 18 114
e 18 117
e 18 122
e 18 130
e 18 133
e 18 138
e 19 20
e 19 22
e 19 24
e 19 28
e 19 29
e 19 32
e 19 48
e 19 50
e 19 51
e 19 52
e 19 65
e 19 67
e 19 69
e 19 86
e 20 23
e 20 32
e 20 51
e 20 57
e 20 65
e 20 67
e 20 80
e 20 86
e 20 92
e 20 109
e 20 111
e 20 113
e 20 114
e 20 130
e 20 138
e 21 29
e 21 38
e 21 40
e 21 45
e 21 58
e 21 59
e 21 62
e 21 73
e 21 78
e 21 92
e 21 101
e 21 127
e 21 132
e 22 24
e 22 28
e 22 29
e 22 35
e 22 46
e 22 48
e 22 50
e 22 52
e 22 69
e 22 96
e 22 98
e 22 107
e 23 30
e 23 47
e 23 57
e 23 69
e 23 80
e 23 89
e 23 92
e 23 95
e 23 102
e 23 105
e 23 106
e 23 109
e 23 110
e 23 111
e 23 113
e 23 114
e 23 130
e 23 138
e 24 28
e 24 29
e 24 48
e 24 50
e 24 52
e 24 69
e 24 79
e 24 82
e 24 93
e 24 108
e 24 112
e 24 120
e 24 135
e 24 138
e 25 27
e 25 38
e 25 52
e 25 60
e 25 61
e 25 72
e 25 76
e 25 81
e 25 84
e 25 86
e 25 94
e 25 95
e 25 97
e 25 121
e 25 125
e 25 134
e 25 135
e 26 34
e 26 36
e 26 39
e 26 53
e 26 56
e 26 57
e 26 72
e 26 89
e 26 97
e 26 112
e 26 118
e 26 119
e 26 122
e 26 124
e 26 129
e 27 38
e 27 40
e 27 43
e 27 44
e 27 48
e 27 61
e 27 64
e 27 77
e 27 84
e 27 86
e 27 91
e 27 95
e 27 97
e 27 100
e 27 125
e 27 130
e 27 134
e 27 135
e 28 29
e 28 34
e 28 42
e 28 48
e 28 50
e 28 52
e 28 69
e 28 73
e 28 75
e 28 85
e 28 87
e 28 113
e 28 115
e 28 125
e 28 128
e 29 38
e 29 48
e 29 50
e 29 52
e 29 58
e 29 59
e 29 69
e 29 78
e 29 92
e 29 127
e 30 33
e 30 42
e 30 47
e 30 49
e 30 69
e 30 74
e 30 89
e 30 95
e 30 100
e 30 102
e 30 105
e 30 106
e 30 110
e 30 118
e 31 33
e 31 39
e 31 41
e 31 55
e 31 60
e 31 61
e 31 63
e 31 82
e 31 85
e 31 90
e 31 99
e 31 101
e 31 106
e 31 117
e 31 122
e 31 127
e 31 131
e 31 133
e 32 41
e 32 51
e 32 65
e 32 67
e 32 68
e 32 86
e 32 102
e 32 103
e 32 115
e 32 121
e 32 126
e 32 129
e 32 137
e 33 41
e 33 42
e 33 49
e 33 55
e 33 61
e 33 74
e 33 99
e 33 100
e 33 101
e 33 117
e 33 118
e 33 122
e 33 133
e 34 42
e 34 53
e 34 56
e 34 72
e 34 73
e 34 75
e 34 85
e 34 87
e 34 89
e 34 112
e 34 113
e 34 115
e 34 122
e 34 124
e 34 125
e 34 128
e 35 46
e 35 67
e 35 93
e 35 96
e 35 98
e 35 107
e 35 117
e 35 128
e 36 39
e 36 44
e 36 57
e 36 59
e 36 75
e 36 76
e 36 88
e 36 97
e 36 104
e 36 107
e 36 110
e 36 118
e 36 119
e 36 120
e 36 129
e 37 54
e 37 56
e 37 65
e 37 77
e 37 79
e 37 87
e 37 96
e 37 137
e 38 58
e 38 59
e 38 61
e 38 78
e 38 84
e 38 86
e 38 92
e 38 95
e 38 97
e 38 125
e 38 127
e 38 134
e 38 135
e 39 57
e 39 60
e 39 63
e 39 82
e 39 85
e 39 90
e 39 97
e 39 106
e 39 118
e 39 119
e 39 127
e 39 129
e 39 131
e 40 43
e 40 44
e 40 45
e 40 48
e 40 62
e 40 64
e 40 73
e 40 77
e 40 91
e 40 100
e 40 101
e 40 130
e 40 132
e 41 55
e 41 61
e 41 68
e 41 99
e 41 101
e 41 102
e 41 103
e 41 115
e 41 117
e 41 121
e 41 122
e 41 126
e 41 129
e 41 133
e 41 137
e 42 49
e 42 73
e 42 74
e 42 75
e 42 85
e 42 87
e 42 100
e 42 113
e 42 115
e 42 118
e 42 125
e 42 128
e 43 44
e 43 48
e 43 64
e 43 71
e 43 77
e 43 91
e 43 94
e 43 100
e 43 130
e 43 133
e 44 48
e 44 59
e 44 64
e 44 75
e 44 76
e 44 77
e 44 88
e 44 91
e 44 100
e 44 104
e 44 107
e 44 110
e 44 120
e 44 130
e 45 49
e 45 53
e 45 62
e 45 63
e 45 68
e 45 71
e 45 73
e 45 88
e 45 101
e 45 111
e 45 116
e 45 123
e 45 132
e 45 134
e 45 136
e 46 47
e 46 70
e 46 78
e 46 96
e 46 98
e 46 107
e 46 108
e 46 136
e 47 69
e 47 70
e 47 78
e 47 89
e 47 95
e 47 102
e 47 105
e 47 106
e 47 108
e 47 110
e 47 136
e 48 50
e 48 52
e 48 64
e 48 69
e 48 77
e 48 91
e 48 100
e 48 130
e 49 53
e 49 63
e 49 68
e 49 71
e 49 74
e 49 88
e 49 100
e 49 111
e 49 116
e 49 118
e 49 123
e 49 134
e 49 136
e 50 52
e 50 62
e 50 69
e 50 83
e 50 90
e 50 114
e 51 55
e 51 64
e 51 65
e 51 66
e 51 67
e 51 81
e 51 83
e 51 86
e 51 98
e 51 105
e 51 116
e 52 60
e 52 69
e 52 72
e 52 76
e 52 81
e 52 94
e 52 121
e 53 56
e 53 63
e 53 68
e 53 71
e 53 72
e 53 88
e 53 89
e 53 111
e 53 112
e 53 116
e 53 122
e 53 123
e 53 124
e 53 134
e 53 136
e 54 65
e 54 77
e 54 79
e 54 87
e 54 96
e 54 103
e 54 109
e 55 61
e 55 64
e 55 66
e 55 81
e 55 83
e 55 98
e 55 99
e 55 101
e 55 105
e 55 116
e 55 117
e 55 122
e 55 133
e 56 72
e 56 89
e 56 112
e 56 122
e 56 124
e 56 137
e 57 80
e 57 92
e 57 97
e 57 109
e 57 111
e 57 113
e 57 114
e 57 118
e 57 119
e 57 129
e 57 130
e 57 138
e 58 59
e 58 78
e 58 91
e 58 92
e 58 99
e 58 119
e 58 123
e 58 127
e 59 75
e 59 76
e 59 78
e 59 88
e 59 92
e 59 104
e 59 107
e 59 110
e 59 120
e 59 127
e 60 63
e 60 72
e 60 76
e 60 81
e 60 82
e 60 85
e 60 90
e 60 94
e 60 106
e 60 121
e 60 127
e 60 131
e 61 84
e 61 86
e 61 95
e 61 97
e 61 99
e 61 101
e 61 117
e 61 122
e 61 125
e 61 133
e 61 134
e 61 135
e 62 73
e 62 83
e 62 90
e 62 101
e 62 114
e 62 132
e 63 68
e 63 71
e 63 82
e 63 85
e 63 88
e 63 90
e 63 106
e 63 111
e 63 116
e 63 123
e 63 127
e 63 131
e 63 134
e 63 136
e 64 66
e 64 77
e 64 81
e 64 83
e 64 91
e 64 98
e 64 100
e 64 105
e 64 116
e 64 130
e 65 67
e 65 77
e 65 79
e 65 86
e 65 87
e 65 96
e 66 70
e 66 74
e 66 80
e 66 81
e 66 83
e 66 84
e 66 98
e 66 104
e 66 105
e 66 116
e 66 124
e 66 126
e 66 131
e 66 132
e 67 86
e 67 93
e 67 117
e 67 128
e 68 71
e 68 88
e 68 102
e 68 103
e 68 111
e 68 115
e 68 116
e 68 121
e 68 123
e 68 126
e 68 129
e 68 134
e 68 136
e 68 137
e 69 89
e 69 95
e 69 102
e 69 105
e 69 106
e 69 110
e 70 74
e 70 78
e 70 80
e 70 84
e 70 104
e 70 108
e 70 124
e 70 126
e 70 131
e 70 132
e 70 136
e 71 88
e 71 94
e 71 111
e 71 116
e 71 123
e 71 133
e 71 134
e 71 136
e 72 76
e 72 81
e 72 89
e 72 94
e 72 112
e 72 121
e 72 122
e 72 124
e 73 75
e 73 85
e 73 87
e 73 101
e 73 113
e 73 115
e 73 125
e 73 128
e 73 132
e 74 80
e 74 84
e 74 100
e 74 104
e 74 118
e 74 124
e 74 126
e 74 131
e 74 132
e 75 76
e 75 85
e 75 87
e 75 88
e 75 104
e 75 107
e 75 110
e 75 113
e 75 115
e 75 120
e 75 125
e 75 128
e 76 81
e 76 88
e 76 94
e 76 104
e 76 107
e 76 110
e 76 120
e 76 121
e 77 79
e 77 87
e 77 91
e 77 96
e 77 100
e 77 130
e 78 92
e 78 108
e 78 127
e 78 136
e 79 82
e 79 87
e 79 93
e 79 96
e 79 108
e 79 112
e 79 120
e 79 135
e 79 138
e 80 84
e 80 92
e 80 104
e 80 109
e 80 111
e 80 113
e 80 114
e 80 124
e 80 126
e 80 130
e 80 131
e 80 132
e 80 138
e 81 83
e 81 94
e 81 98
e 81 105
e 81 116
e 81 121
e 82 85
e 82 90
e 82 93
e 82 106
e 82 108
e 82 112
e 82 120
e 82 127
e 82 131
e 82 135
e 82 138
e 83 90
e 83 98
e 83 105
e 83 114
e 83 116
e 84 86
e 84 95
e 84 97
e 84 104
e 84 124
e 84 125
e 84 126
e 84 131
e 84 132
e 84 134
e 84 135
e 85 87
e 85 90
e 85 106
e 85 113
e 85 115
e 85 125
e 85 127
e 85 128
e 85 131
e 86 95
e 86 97
e 86 125
e 86 134
e 86 135
e 87 96
e 87 113
e 87 115
e 87 125
e 87 128
e 88 104
e 88 107
e 88 110
e 88 111
e 88 116
e 88 120
e 88 123
e 88 134
e 88 136
e 89 95
e 89 102
e 89 105
e 89 106
e 89 110
e 89 112
e 89 122
e 89 124
e 90 106
e 90 114
e 90 127
e 90 131
e 91 99
e 91 100
e 91 119
e 91 123
e 91 130
e 92 109
e 92 111
e 92 113
e 92 114
e 92 127
e 92 130
e 92 138
e 93 108
e 93 112
e 93 117
e 93 120
e 93 128
e 93 135
e 93 138
e 94 121
e 94 133
e 95 97
e 95 102
e 95 105
e 95 106
e 95 110
e 95 125
e 95 134
e 95 135
e 96 98
e 96 107
e 97 118
e 97 119
e 97 125
e 97 129
e 97 134
e 97 135
e 98 105
e 98 107
e 98 116
e 99 101
e 99 117
e 99 119
e 99 122
e 99 123
e 99 133
e 100 118
e 100 130
e 101 117
e 101 122
e 101 132
e 101 133
e 102 103
e 102 105
e 102 106
e 102 110
e 102 115
e 102 121
e 102 126
e 102 129
e 102 137
e 103 109
e 103 115
e 103 121
e 103 126
e 103 129
e 103 137
e 104 107
e 104 110
e 104 120
e 104 124
e 104 126
e 104 131
e 104 132
e 105 106
e 105 110
e 105 116
e 106 110
e 106 127
e 106 131
e 107 110
e 107 120
e 108 112
e 108 120
e 108 135
e 108 136
e 108 138
e 109 111
e 109 113
e 109 114
e 109 130
e 109 138
e 110 120
e 111 113
e 111 114
e 111 116
e 111 123
e 111 130
e 111 134
e 111 136
e 111 138
e 112 120
e 112 122
e 112 124
e 112 135
e 112 138
e 113 114
e 113 115
e 113 125
e 113 128
e 113 130
e 113 138
e 114 130
e 114 138
e 115 121
e 115 125
e 115 126
e 115 128
e 115 129
e 115 137
e 116 123
e 116 134
e 116 136
e 117 122
e 117 128
e 117 133
e 118 119
e 118 129
e 119 123
e 119 129
e 120 135
e 120 138
e 121 126
e 121 129
e 121 137
e 122 124
e 122 133
e 123 134
e 123 136
e 124 126
e 124 131
e 124 132
e 125 128
e 125 134
e 125 135
e 126 129
e 126 131
e 126 132
e 126 137
e 127 131
e 129 137
e 130 138
e 131 132
e 134 135
e 134 136
e 135 138
